%chk=C:\Users\emman\Escritorio\quimica-enlaces\molecula\2Fe.chk
# b3lyp/3-21g

Title Card Required

0 1
 Fe                -1.47530069    1.30557429    0.00000000
 Fe                -2.46606728    1.16999570    0.00000000

