%chk=C:\Users\inani\Documents\AG\molecula\ag.chk
#p b3lyp/3-21g

Title Card Required

0 2
 Ag                -1.03947367    1.39473673    0.00000000

