%chk=C:\Users\emman\Escritorio\quimica-enlaces\molecula\2.chk
#p b3lyp/3-21g

Title Card Required

0 1
 Li                 3.10522389    0.57521400    0.00000000
 H                  1.57522389    0.57521400    0.00000000
 Fe                 2.20422222    0.14139837    0.00000000
 H                  3.66422222    0.14139837    0.00000000
 H                  0.74422222    0.14139837    0.00000000

