%chk=C:\Users\emman\Escritorio\quimica-enlaces\molecula\bn.chk
#p b3lyp/3-21g

Title Card Required

0 2
 Li                 4.64474019    1.33044279    0.00000000
 H                  3.11474019    1.33044279    0.00000000
 Be                 4.89923349    0.36336826    0.00000000
 H                  3.70923349    0.36336826    0.00000000

