%chk=C:\Users\inani\Documents\AG\AG.chk
#p b3lyp/3-21g

Title Card Required

0 1
 Ag                 0.00000000    0.00000000    4.80000000
 Ag                 0.00000000    0.00000000    0.00000000

