%chk=C:\Users\emman\Escritorio\quimica-enlaces\molecula\2Fe.chk
# b3lyp/3-21g

Title Card Required - Distancia 4.600A - Paso 18

0 1
 Fe    -1.47530069     1.30557429     0.00000000
 Fe    -6.03282703     0.68191277     0.00000000

