%chk=C:\Users\emman\Escritorio\quimica-enlaces\molecula\2Fe.chk
# b3lyp/3-21g

Title Card Required - Distancia 3.800A - Paso 14

0 1
 Fe    -1.47530069     1.30557429     0.00000000
 Fe    -5.24021375     0.79037565     0.00000000

