%chk=C:\Users\emman\Escritorio\quimica-enlaces\molecula\2Fe.chk
# b3lyp/3-21g

Title Card Required - Distancia 3.400A - Paso 12

0 1
 Fe    -1.47530069     1.30557429     0.00000000
 Fe    -4.84390711     0.84460708     0.00000000

