%chk=C:\Users\emman\Escritorio\quimica-enlaces\molecula\2Fe.chk
# b3lyp/3-21g

Title Card Required - Distancia 2.600A - Paso 8

0 1
 Fe    -1.47530069     1.30557429     0.00000000
 Fe    -4.05129384     0.95306995     0.00000000

