%chk=C:\Users\emman\Escritorio\quimica-enlaces\molecula\2Fe.chk
# b3lyp/3-21g

Title Card Required - Distancia 2.200A - Paso 6

0 1
 Fe    -1.47530069     1.30557429     0.00000000
 Fe    -3.65498720     1.00730139     0.00000000

