%chk=C:\Users\emman\Escritorio\quimica-enlaces\molecula\2Fe.chk
# b3lyp/3-21g

Title Card Required - Distancia 5.800A - Paso 24

0 1
 Fe    -1.47530069     1.30557429     0.00000000
 Fe    -7.22174694     0.51921846     0.00000000

