%chk=C:\Users\emman\Escritorio\quimica-enlaces\molecula\2Fe.chk
# b3lyp/3-21g

Title Card Required - Distancia 1.600A - Paso 3

0 1
 Fe    -1.47530069     1.30557429     0.00000000
 Fe    -3.06052724     1.08864854     0.00000000

