%chk=C:\Users\emman\Escritorio\quimica-enlaces\molecula\2Fe.chk
# b3lyp/3-21g

Title Card Required - Distancia 4.800A - Paso 19

0 1
 Fe    -1.47530069     1.30557429     0.00000000
 Fe    -6.23098035     0.65479705     0.00000000

