%chk=C:\Users\emman\Escritorio\quimica-enlaces\molecula\2Fe.chk
# b3lyp/3-21g

Title Card Required - Distancia 5.400A - Paso 22

0 1
 Fe    -1.47530069     1.30557429     0.00000000
 Fe    -6.82544030     0.57344990     0.00000000

