%chk=C:\Users\emman\Escritorio\quimica-enlaces\molecula\2Fe.chk
# b3lyp/3-21g

Title Card Required - Distancia 4.200A - Paso 16

0 1
 Fe    -1.47530069     1.30557429     0.00000000
 Fe    -5.63652039     0.73614421     0.00000000

