%chk=C:\Users\emman\Escritorio\quimica-enlaces\molecula\2Fe.chk
# b3lyp/3-21g

Title Card Required - Distancia 1.400A - Paso 2

0 1
 Fe    -1.47530069     1.30557429     0.00000000
 Fe    -2.86237392     1.11576426     0.00000000

