%chk=C:\Users\emman\Escritorio\quimica-enlaces\molecula\2Fe.chk
# b3lyp/3-21g

Title Card Required - Distancia 5.200A - Paso 21

0 1
 Fe    -1.47530069     1.30557429     0.00000000
 Fe    -6.62728698     0.60056562     0.00000000

