%chk=C:\Users\emman\Escritorio\quimica-enlaces\molecula\2Fe.chk
# b3lyp/3-21g

Title Card Required - Distancia 2.000A - Paso 5

0 1
 Fe    -1.47530069     1.30557429     0.00000000
 Fe    -3.45683388     1.03441711     0.00000000

