%chk=C:\Users\emman\Escritorio\quimica-enlaces\molecula\2Fe.chk
# b3lyp/3-21g

Title Card Required - Distancia 3.600A - Paso 13

0 1
 Fe    -1.47530069     1.30557429     0.00000000
 Fe    -5.04206043     0.81749136     0.00000000

