%chk=C:\Users\emman\Escritorio\quimica-enlaces\molecula\2Fe.chk
# b3lyp/3-21g

Title Card Required - Distancia 4.000A - Paso 15

0 1
 Fe    -1.47530069     1.30557429     0.00000000
 Fe    -5.43836707     0.76325993     0.00000000

