%chk=C:\Users\emman\Escritorio\quimica-enlaces\molecula\2Fe.chk
# b3lyp/3-21g

Title Card Required - Distancia 4.400A - Paso 17

0 1
 Fe    -1.47530069     1.30557429     0.00000000
 Fe    -5.83467371     0.70902849     0.00000000

