%chk=C:\Users\emman\Escritorio\quimica-enlaces\molecula\2Fe.chk
# b3lyp/3-21g

Title Card Required - Distancia 5.000A - Paso 20

0 1
 Fe    -1.47530069     1.30557429     0.00000000
 Fe    -6.42913366     0.62768134     0.00000000

