%chk=C:\Users\emman\Escritorio\quimica-enlaces\molecula\2Fe.chk
# b3lyp/3-21g

Title Card Required - Distancia 2.800A - Paso 9

0 1
 Fe    -1.47530069     1.30557429     0.00000000
 Fe    -4.24944716     0.92595424     0.00000000

