%chk=C:\Users\emman\Escritorio\quimica-enlaces\molecula\2Fe.chk
# b3lyp/3-21g

Title Card Required - Distancia 5.600A - Paso 23

0 1
 Fe    -1.47530069     1.30557429     0.00000000
 Fe    -7.02359362     0.54633418     0.00000000

