%chk=C:\Users\emman\Escritorio\quimica-enlaces\molecula\2Fe.chk
# b3lyp/3-21g

Title Card Required - Distancia 6.000A - Paso 25

0 1
 Fe    -1.47530069     1.30557429     0.00000000
 Fe    -7.41990026     0.49210275     0.00000000

