%chk=C:\Users\emman\Escritorio\quimica-enlaces\molecula\2Fe.chk
# b3lyp/3-21g

Title Card Required - Distancia 1.200A - Paso 1

0 1
 Fe    -1.47530069     1.30557429     0.00000000
 Fe    -2.66422060     1.14287998     0.00000000

