%chk=C:\Users\emman\Escritorio\quimica-enlaces\molecula\scan_2Fe_\Fe.chk
# hf/3-21g

Title Card Required

0 1
 Fe                -2.31270352    1.25407164    0.00000000

