%chk=C:\Users\emman\Escritorio\quimica-enlaces\molecula\Fe(dft).chk
# b3lyp/3-21g geom=connectivity

Title Card Required - Distancia 1.000A - Paso 0

0 1
 Fe     0.28388757     1.05956719     0.00000000
 Fe    -0.70734033     0.92740347     0.00000000

 1
 2


