%chk=C:\Users\emman\Escritorio\quimica-enlaces\molecula\Fe(dft).chk
# b3lyp/3-21g geom=connectivity

Title Card Required - Distancia 4.400A - Paso 17

0 1
 Fe     0.28388757     1.05956719     0.00000000
 Fe    -4.07751519     0.47804682     0.00000000

 1
 2


