%chk=C:\Users\emman\Escritorio\quimica-enlaces\molecula\Fe(dft).chk
# b3lyp/3-21g geom=connectivity

Title Card Required - Distancia 3.800A - Paso 14

0 1
 Fe     0.28388757     1.05956719     0.00000000
 Fe    -3.48277845     0.55734505     0.00000000

 1
 2


