%chk=C:\Users\emman\Escritorio\quimica-enlaces\molecula\Fe(dft).chk
# b3lyp/3-21g geom=connectivity

Title Card Required - Distancia 2.400A - Paso 7

0 1
 Fe     0.28388757     1.05956719     0.00000000
 Fe    -2.09505939     0.74237426     0.00000000

 1
 2


