%chk=C:\Users\emman\Escritorio\quimica-enlaces\molecula\Fe(dft).chk
# b3lyp/3-21g geom=connectivity

Title Card Required - Distancia 1.800A - Paso 4

0 1
 Fe     0.28388757     1.05956719     0.00000000
 Fe    -1.50032265     0.82167249     0.00000000

 1
 2


