%chk=C:\Users\emman\Escritorio\quimica-enlaces\molecula\Fe(dft).chk
# b3lyp/3-21g geom=connectivity

Title Card Required - Distancia 2.800A - Paso 9

0 1
 Fe     0.28388757     1.05956719     0.00000000
 Fe    -2.49155055     0.68950877     0.00000000

 1
 2


