%chk=C:\Users\emman\Escritorio\quimica-enlaces\molecula\Fe(dft).chk
# b3lyp/3-21g geom=connectivity

Title Card Required - Distancia 4.800A - Paso 19

0 1
 Fe     0.28388757     1.05956719     0.00000000
 Fe    -4.47400635     0.42518133     0.00000000

 1
 2


