%chk=C:\Users\emman\Escritorio\quimica-enlaces\molecula\Fe(dft).chk
# b3lyp/3-21g geom=connectivity

Title Card Required - Distancia 4.200A - Paso 16

0 1
 Fe     0.28388757     1.05956719     0.00000000
 Fe    -3.87926961     0.50447957     0.00000000

 1
 2


