%chk=C:\Users\emman\Escritorio\quimica-enlaces\molecula\scan_NaCl_\Cl-.chk
# b3lyp/3-21g

Title Card Required

-1 1
 Cl                 1.00977196   -0.17915309    0.00000000

