%chk=C:\Users\emman\Escritorio\quimica-enlaces\molecula\scan_NaCl_\Na+.chk
# b3lyp/3-21g

Title Card Required

1 1
 Na                -0.68403907    1.41693809    0.00000000

