%chk=C:\Users\emman\Escritorio\quimica-enlaces\molecula\NaCl.chk
# hf/3-21g geom=connectivity

Title Card Required - Distancia 5.000A - Paso 20

0 1
 Na     2.99180411     1.63591009     0.00000000
 Cl    -2.00767087     1.56345389     0.00000000

 1 2 1.0
 2


