%chk=C:\Users\emman\Escritorio\quimica-enlaces\molecula\NaCl.chk
# hf/3-21g geom=connectivity

Title Card Required - Distancia 1.200A - Paso 1

0 1
 Na     2.99180411     1.63591009     0.00000000
 Cl     1.79193011     1.61852060     0.00000000

 1 2 1.0
 2


