%chk=C:\Users\emman\Escritorio\quimica-enlaces\molecula\NaCl.chk
# hf/3-21g geom=connectivity

Title Card Required - Distancia 6.000A - Paso 25

0 1
 Na     2.99180411     1.63591009     0.00000000
 Cl    -3.00756587     1.54896265     0.00000000

 1 2 1.0
 2


