%chk=C:\Users\emman\Escritorio\quimica-enlaces\molecula\H2O.chk
# b3lyp/3-21g geom=connectivity

Title Card Required - Distancia +3.25A - Paso 13

0 1
 C     -2.07749416    -0.63700562    -0.01419458
 H     -1.26790947    -1.33069728     0.07671479
 H     -1.78518986    -0.23363379     0.93277394
 H     -1.66220218    -0.19108573    -0.89373311
 H     -2.75060946    -1.44993395    -0.19015855
 C     -5.78783465     2.39138694     0.06446170
 H     -6.44054216     1.56049771     0.23326924
 H     -5.36520825     2.90308909     0.90377562
 H     -5.52452096     2.75144172    -0.90812580
 H     -6.63816748     3.04045333     0.08784782

 1 2 1.0 3 1.0 4 1.0 5 1.0 6 1.0
 2
 3
 4
 5
 6 7 1.0 8 1.0 9 1.0 10 1.0
 7
 8
 9
 10


