%chk=C:\Users\emman\Escritorio\quimica-enlaces\molecula\H2O.chk
# b3lyp/3-21g geom=connectivity

Title Card Required - Distancia +1.75A - Paso 7

0 1
 C     -2.07749416    -0.63700562    -0.01419458
 H     -1.26790947    -1.33069728     0.07671479
 H     -1.78518986    -0.23363379     0.93277394
 H     -1.66220218    -0.19108573    -0.89373311
 H     -2.75060946    -1.44993395    -0.19015855
 C     -4.62571940     1.44335821     0.03744960
 H     -5.27842691     0.61246898     0.20625714
 H     -4.20309300     1.95506036     0.87676352
 H     -4.36240571     1.80341299    -0.93513790
 H     -5.47605223     2.09242460     0.06083572

 1 2 1.0 3 1.0 4 1.0 5 1.0 6 1.0
 2
 3
 4
 5
 6 7 1.0 8 1.0 9 1.0 10 1.0
 7
 8
 9
 10


