%chk=C:\Users\emman\Escritorio\quimica-enlaces\molecula\H2O.chk
# b3lyp/3-21g geom=connectivity

Title Card Required - Distancia +1.25A - Paso 5

0 1
 C     -2.07749416    -0.63700562    -0.01419458
 H     -1.26790947    -1.33069728     0.07671479
 H     -1.78518986    -0.23363379     0.93277394
 H     -1.66220218    -0.19108573    -0.89373311
 H     -2.75060946    -1.44993395    -0.19015855
 C     -4.23834765     1.12734863     0.02844557
 H     -4.89105516     0.29645940     0.19725311
 H     -3.81572125     1.63905078     0.86775949
 H     -3.97503396     1.48740341    -0.94414193
 H     -5.08868048     1.77641502     0.05183169

 1 2 1.0 3 1.0 4 1.0 5 1.0 6 1.0
 2
 3
 4
 5
 6 7 1.0 8 1.0 9 1.0 10 1.0
 7
 8
 9
 10


