%chk=C:\Users\emman\Escritorio\quimica-enlaces\molecula\H2O.chk
# b3lyp/3-21g geom=connectivity

Title Card Required - Distancia +0.00A - Paso 0

0 1
 C     -2.07749416    -0.63700562    -0.01419458
 H     -1.26790947    -1.33069728     0.07671479
 H     -1.78518986    -0.23363379     0.93277394
 H     -1.66220218    -0.19108573    -0.89373311
 H     -2.75060946    -1.44993395    -0.19015855
 C     -3.26991827     0.33732468     0.00593548
 H     -3.92262578    -0.49356455     0.17474302
 H     -2.84729187     0.84902683     0.84524940
 H     -3.00660458     0.69737946    -0.96665202
 H     -4.12025110     0.98639107     0.02932160

 1 2 1.0 3 1.0 4 1.0 5 1.0 6 1.0
 2
 3
 4
 5
 6 7 1.0 8 1.0 9 1.0 10 1.0
 7
 8
 9
 10


