%chk=C:\Users\emman\Escritorio\quimica-enlaces\molecula\H2O.chk
# b3lyp/3-21g geom=connectivity

Title Card Required - Distancia +3.00A - Paso 12

0 1
 C     -2.07749416    -0.63700562    -0.01419458
 H     -1.26790947    -1.33069728     0.07671479
 H     -1.78518986    -0.23363379     0.93277394
 H     -1.66220218    -0.19108573    -0.89373311
 H     -2.75060946    -1.44993395    -0.19015855
 C     -5.59414877     2.23338216     0.05995969
 H     -6.24685628     1.40249293     0.22876723
 H     -5.17152237     2.74508431     0.89927361
 H     -5.33083508     2.59343694    -0.91262781
 H     -6.44448160     2.88244855     0.08334581

 1 2 1.0 3 1.0 4 1.0 5 1.0 6 1.0
 2
 3
 4
 5
 6 7 1.0 8 1.0 9 1.0 10 1.0
 7
 8
 9
 10


