%chk=C:\Users\emman\Escritorio\quimica-enlaces\molecula\scan_2CH5_\CH5.chk
# b3lyp/3-21g

Title Card Required

0 1
 C                  0.74918565    0.96091204    0.00000000
 H                  1.10584007   -0.04789796    0.00000000
 H                  1.10585849    1.46531023    0.87365150
 H                  1.10585849    1.46531023   -0.87365150
 H                 -0.32081435    0.96092522    0.00000000

