%chk=C:\Users\emman\Escritorio\quimica-enlaces\molecula\2H.chk
# b3lyp/3-21g

Title Card Required - Distancia 2.200A - Paso 6

0 1
 H     -1.01548204     1.91174965     0.00000000
 H      1.15947940     2.24272205     0.00000000

