%chk=C:\Users\emman\Escritorio\quimica-enlaces\molecula\2H.chk
# b3lyp/3-21g

Title Card Required - Distancia 5.000A - Paso 20

0 1
 H     -1.01548204     1.91174965     0.00000000
 H      3.92761214     2.66395966     0.00000000

