%chk=C:\Users\emman\Escritorio\quimica-enlaces\molecula\2H.chk
# b3lyp/3-21g

Title Card Required - Distancia 4.000A - Paso 15

0 1
 H     -1.01548204     1.91174965     0.00000000
 H      2.93899331     2.51351765     0.00000000

