%chk=C:\Users\emman\Escritorio\quimica-enlaces\molecula\2H.chk
# b3lyp/3-21g

Title Card Required - Distancia 3.600A - Paso 13

0 1
 H     -1.01548204     1.91174965     0.00000000
 H      2.54354577     2.45334085     0.00000000

