%chk=C:\Users\emman\Escritorio\quimica-enlaces\molecula\2H.chk
# b3lyp/3-21g

Title Card Required - Distancia 4.800A - Paso 19

0 1
 H     -1.01548204     1.91174965     0.00000000
 H      3.72988838     2.63387125     0.00000000

