%chk=C:\Users\emman\Escritorio\quimica-enlaces\molecula\2H.chk
# b3lyp/3-21g

Title Card Required - Distancia 3.400A - Paso 12

0 1
 H     -1.01548204     1.91174965     0.00000000
 H      2.34582200     2.42325245     0.00000000

