%chk=C:\Users\emman\Escritorio\quimica-enlaces\molecula\2H.chk
# b3lyp/3-21g

Title Card Required - Distancia 1.600A - Paso 3

0 1
 H     -1.01548204     1.91174965     0.00000000
 H      0.56630810     2.15245685     0.00000000

