%chk=C:\Users\emman\Escritorio\quimica-enlaces\molecula\2H.chk
# b3lyp/3-21g

Title Card Required - Distancia 1.400A - Paso 2

0 1
 H     -1.01548204     1.91174965     0.00000000
 H      0.36858433     2.12236845     0.00000000

