%chk=C:\Users\emman\Escritorio\quimica-enlaces\molecula\2H.chk
# b3lyp/3-21g

Title Card Required - Distancia 1.200A - Paso 1

0 1
 H     -1.01548204     1.91174965     0.00000000
 H      0.17086056     2.09228005     0.00000000

