%chk=C:\Users\emman\Escritorio\quimica-enlaces\molecula\2H.chk
# b3lyp/3-21g

Title Card Required - Distancia 1.800A - Paso 4

0 1
 H     -1.01548204     1.91174965     0.00000000
 H      0.76403187     2.18254525     0.00000000

