%chk=C:\Users\emman\Escritorio\quimica-enlaces\molecula\2H.chk
# b3lyp/3-21g

Title Card Required - Distancia 4.200A - Paso 16

0 1
 H     -1.01548204     1.91174965     0.00000000
 H      3.13671707     2.54360605     0.00000000

