%chk=C:\Users\emman\Escritorio\quimica-enlaces\molecula\2H.chk
# b3lyp/3-21g

Title Card Required - Distancia 2.800A - Paso 9

0 1
 H     -1.01548204     1.91174965     0.00000000
 H      1.75265070     2.33298725     0.00000000

