%chk=C:\Users\emman\Escritorio\quimica-enlaces\molecula\2H.chk
# b3lyp/3-21g

Title Card Required - Distancia 3.200A - Paso 11

0 1
 H     -1.01548204     1.91174965     0.00000000
 H      2.14809824     2.39316405     0.00000000

