%chk=C:\Users\emman\Escritorio\quimica-enlaces\molecula\2H.chk
# b3lyp/3-21g

Title Card Required - Distancia 2.000A - Paso 5

0 1
 H     -1.01548204     1.91174965     0.00000000
 H      0.96175563     2.21263365     0.00000000

