%chk=C:\Users\emman\Escritorio\quimica-enlaces\molecula\2H.chk
# b3lyp/3-21g

Title Card Required - Distancia 5.200A - Paso 21

0 1
 H     -1.01548204     1.91174965     0.00000000
 H      4.12533591     2.69404806     0.00000000

