%chk=C:\Users\emman\Escritorio\quimica-enlaces\molecula\2H.chk
# b3lyp/3-21g

Title Card Required - Distancia 3.000A - Paso 10

0 1
 H     -1.01548204     1.91174965     0.00000000
 H      1.95037447     2.36307565     0.00000000

