%chk=C:\Users\emman\Escritorio\quimica-enlaces\molecula\2H.chk
# b3lyp/3-21g

Title Card Required - Distancia 6.000A - Paso 25

0 1
 H     -1.01548204     1.91174965     0.00000000
 H      4.91623098     2.81440166     0.00000000

