%chk=C:\Users\emman\Escritorio\quimica-enlaces\molecula\2H.chk
# b3lyp/3-21g

Title Card Required - Distancia 5.400A - Paso 22

0 1
 H     -1.01548204     1.91174965     0.00000000
 H      4.32305968     2.72413646     0.00000000

