%chk=C:\Users\emman\Escritorio\quimica-enlaces\molecula\2H.chk
# b3lyp/3-21g

Title Card Required - Distancia 2.400A - Paso 7

0 1
 H     -1.01548204     1.91174965     0.00000000
 H      1.35720317     2.27281045     0.00000000

