%chk=C:\Users\emman\Escritorio\quimica-enlaces\molecula\2H.chk
# b3lyp/3-21g

Title Card Required - Distancia 4.400A - Paso 17

0 1
 H     -1.01548204     1.91174965     0.00000000
 H      3.33444084     2.57369445     0.00000000

