%chk=C:\Users\emman\Escritorio\quimica-enlaces\molecula\2H.chk
# b3lyp/3-21g

Title Card Required - Distancia 2.600A - Paso 8

0 1
 H     -1.01548204     1.91174965     0.00000000
 H      1.55492694     2.30289885     0.00000000

