%chk=C:\Users\emman\Escritorio\quimica-enlaces\molecula\2H.chk
# b3lyp/3-21g

Title Card Required - Distancia 5.600A - Paso 23

0 1
 H     -1.01548204     1.91174965     0.00000000
 H      4.52078345     2.75422486     0.00000000

