%chk=C:\Users\emman\Escritorio\quimica-enlaces\molecula\scan_2H_\H.chk
# b3lyp/3-21g

Title Card Required

0 2
 H                 -1.14006511    0.04885993    0.00000000

