%chk=C:\Users\emman\Escritorio\quimica-enlaces\molecula\2H.chk
# b3lyp/3-21g

Title Card Required - Distancia 0.600A - Paso 1

0 1
 H     -1.01548204     1.91174965     0.00000000
 H     -0.42231074     2.00201485     0.00000000

