%chk=C:\Users\emman\Escritorio\quimica-enlaces\molecula\2H.chk
# b3lyp/3-21g

Title Card Required - Distancia 0.800A - Paso 3

0 1
 H     -1.01548204     1.91174965     0.00000000
 H     -0.22458697     2.03210325     0.00000000

