%chk=C:\Users\emman\Escritorio\quimica-enlaces\molecula\fe(lanl).chk
# b3lyp/lanl2dz

Title Card Required

0 1
 Fe                -0.55374591    0.01628664    0.00000000

