%chk=C:\Users\emman\Escritorio\quimica-enlaces\molecula\fe2(lanl).chk
# b3lyp/lanl2dz geom=connectivity

Title Card Required - Distancia 5.600A - Paso 23

0 1
 Fe     3.90390870     1.84039085     0.00000000
 Fe    -1.69609130     1.84039085     0.00000000

 1
 2


