%chk=C:\Users\emman\Escritorio\quimica-enlaces\molecula\fe2(lanl).chk
# b3lyp/lanl2dz geom=connectivity

Title Card Required - Distancia 4.400A - Paso 17

0 1
 Fe     3.90390870     1.84039085     0.00000000
 Fe    -0.49609130     1.84039085     0.00000000

 1
 2


