%chk=C:\Users\emman\Escritorio\quimica-enlaces\molecula\scan_bn_\be.chk
# b3lyp/3-21g

Title Card Required

0 2
 Be                -0.41952150   -0.19704812    0.00000000
 H                 -1.60952150   -0.19704812    0.00000000

