%chk=C:\Users\emman\Escritorio\quimica-enlaces\molecula\scan_bn_\li.chk
# b3lyp/3-21g

Title Card Required

0 1
 Li                 0.30510712    0.06992030    0.00000000
 H                 -1.22489288    0.06992030    0.00000000

