%chk=C:\Users\emman\Escritorio\quimica-enlaces\molecula\bn.chk
#p b3lyp/3-21g

Title Card Required - Distancia +3.00A - Paso 15

0 2
 Li     4.64474019     1.33044279     0.00000000
 H      3.11474019     1.33044279     0.00000000
 Be     6.10502266    -2.38364329     0.00000000
 H      4.91502266    -2.38364329     0.00000000

