%chk=C:\Users\emman\Escritorio\quimica-enlaces\molecula\bn.chk
#p b3lyp/3-21g

Title Card Required - Distancia +0.40A - Paso 2

0 2
 Li     4.64474019     1.33044279     0.00000000
 H      3.11474019     1.33044279     0.00000000
 Be     5.06000538    -0.00289995     0.00000000
 H      3.87000538    -0.00289995     0.00000000

