%chk=C:\Users\emman\Escritorio\quimica-enlaces\molecula\bn.chk
#p b3lyp/3-21g

Title Card Required - Distancia +3.20A - Paso 16

0 2
 Li     4.64474019     1.33044279     0.00000000
 H      3.11474019     1.33044279     0.00000000
 Be     6.18540861    -2.56677740     0.00000000
 H      4.99540861    -2.56677740     0.00000000

