%chk=C:\Users\emman\Escritorio\quimica-enlaces\molecula\bn.chk
#p b3lyp/3-21g

Title Card Required - Distancia +2.40A - Paso 12

0 2
 Li     4.64474019     1.33044279     0.00000000
 H      3.11474019     1.33044279     0.00000000
 Be     5.86386483    -1.83424098     0.00000000
 H      4.67386483    -1.83424098     0.00000000

