%chk=C:\Users\emman\Escritorio\quimica-enlaces\molecula\bn.chk
#p b3lyp/3-21g

Title Card Required - Distancia +4.60A - Paso 23

0 2
 Li     4.64474019     1.33044279     0.00000000
 H      3.11474019     1.33044279     0.00000000
 Be     6.74811022    -3.84871612     0.00000000
 H      5.55811022    -3.84871612     0.00000000

