%chk=C:\Users\emman\Escritorio\quimica-enlaces\molecula\bn.chk
#p b3lyp/3-21g

Title Card Required - Distancia +3.80A - Paso 19

0 2
 Li     4.64474019     1.33044279     0.00000000
 H      3.11474019     1.33044279     0.00000000
 Be     6.42656644    -3.11617971     0.00000000
 H      5.23656644    -3.11617971     0.00000000

