%chk=C:\Users\emman\Escritorio\quimica-enlaces\molecula\bn.chk
#p b3lyp/3-21g

Title Card Required - Distancia +2.80A - Paso 14

0 2
 Li     4.64474019     1.33044279     0.00000000
 H      3.11474019     1.33044279     0.00000000
 Be     6.02463672    -2.20050919     0.00000000
 H      4.83463672    -2.20050919     0.00000000

