%chk=C:\Users\emman\Escritorio\quimica-enlaces\molecula\bn.chk
#p b3lyp/3-21g

Title Card Required - Distancia +1.60A - Paso 8

0 2
 Li     4.64474019     1.33044279     0.00000000
 H      3.11474019     1.33044279     0.00000000
 Be     5.54232105    -1.10170457     0.00000000
 H      4.35232105    -1.10170457     0.00000000

