%chk=C:\Users\emman\Escritorio\quimica-enlaces\molecula\03.chk
# b3lyp/3-21g

Title Card Required

0 1
 O                  0.74097291    0.87811861    0.57044517
 O                 -0.90080861    0.42860922   -0.74390688
 O                 -0.10053423    1.27606458   -0.12440683

