%chk=C:\Users\emman\Escritorio\quimica-enlaces\molecula\203.chk
# wb97xd/3-21g

Title Card Required - Distancia 3.400A - Paso 12

0 1
 O      0.12491732    -0.08004175     0.00000000
 O     -2.00597617    -0.37041996     0.00000000
 O     -0.93334631     0.39890778     0.00000000
 O      0.63795758    -3.44111148     0.00000000
 O     -1.49293590    -3.73148969     0.00000000
 O     -0.42030604    -2.96216194     0.00000000

