%chk=C:\Users\emman\Escritorio\quimica-enlaces\molecula\203.chk
# wb97xd/3-21g

Title Card Required - Distancia 2.800A - Paso 9

0 1
 O      0.12491732    -0.08004175     0.00000000
 O     -2.00597617    -0.37041996     0.00000000
 O     -0.93334631     0.39890778     0.00000000
 O      0.54742106    -2.84798153     0.00000000
 O     -1.58347242    -3.13835974     0.00000000
 O     -0.51084256    -2.36903199     0.00000000

