%chk=C:\Users\emman\Escritorio\quimica-enlaces\molecula\203.chk
# wb97xd/3-21g

Title Card Required - Distancia 5.400A - Paso 22

0 1
 O      0.12491732    -0.08004175     0.00000000
 O     -2.00597617    -0.37041996     0.00000000
 O     -0.93334631     0.39890778     0.00000000
 O      0.93974598    -5.41821131     0.00000000
 O     -1.19114750    -5.70858952     0.00000000
 O     -0.11851764    -4.93926177     0.00000000

