%chk=C:\Users\emman\Escritorio\quimica-enlaces\molecula\203.chk
# wb97xd/3-21g

Title Card Required - Distancia 6.000A - Paso 25

0 1
 O      0.12491732    -0.08004175     0.00000000
 O     -2.00597617    -0.37041996     0.00000000
 O     -0.93334631     0.39890778     0.00000000
 O      1.03028249    -6.01134126     0.00000000
 O     -1.10061099    -6.30171947     0.00000000
 O     -0.02798113    -5.53239172     0.00000000

