%chk=C:\Users\emman\Escritorio\quimica-enlaces\molecula\203.chk
# wb97xd/3-21g

Title Card Required - Distancia 2.000A - Paso 5

0 1
 O      0.12491732    -0.08004175     0.00000000
 O     -2.00597617    -0.37041996     0.00000000
 O     -0.93334631     0.39890778     0.00000000
 O      0.42670571    -2.05714159     0.00000000
 O     -1.70418777    -2.34751980     0.00000000
 O     -0.63155791    -1.57819205     0.00000000

