%chk=C:\Users\emman\Escritorio\quimica-enlaces\molecula\203.chk
# wb97xd/3-21g

Title Card Required - Distancia 1.600A - Paso 3

0 1
 O      0.12491732    -0.08004175     0.00000000
 O     -2.00597617    -0.37041996     0.00000000
 O     -0.93334631     0.39890778     0.00000000
 O      0.36634803    -1.66172162     0.00000000
 O     -1.76454545    -1.95209983     0.00000000
 O     -0.69191559    -1.18277208     0.00000000

