%chk=C:\Users\emman\Escritorio\quimica-enlaces\molecula\203.chk
# wb97xd/3-21g

Title Card Required - Distancia 3.800A - Paso 14

0 1
 O      0.12491732    -0.08004175     0.00000000
 O     -2.00597617    -0.37041996     0.00000000
 O     -0.93334631     0.39890778     0.00000000
 O      0.69831526    -3.83653144     0.00000000
 O     -1.43257822    -4.12690965     0.00000000
 O     -0.35994836    -3.35758190     0.00000000

