%chk=C:\Users\emman\Escritorio\quimica-enlaces\molecula\203.chk
# wb97xd/3-21g

Title Card Required - Distancia 2.600A - Paso 8

0 1
 O      0.12491732    -0.08004175     0.00000000
 O     -2.00597617    -0.37041996     0.00000000
 O     -0.93334631     0.39890778     0.00000000
 O      0.51724223    -2.65027154     0.00000000
 O     -1.61365125    -2.94064975     0.00000000
 O     -0.54102139    -2.17132200     0.00000000

