%chk=C:\Users\emman\Escritorio\quimica-enlaces\molecula\203.chk
# wb97xd/3-21g

Title Card Required - Distancia 4.200A - Paso 16

0 1
 O      0.12491732    -0.08004175     0.00000000
 O     -2.00597617    -0.37041996     0.00000000
 O     -0.93334631     0.39890778     0.00000000
 O      0.75867294    -4.23195141     0.00000000
 O     -1.37222054    -4.52232962     0.00000000
 O     -0.29959068    -3.75300187     0.00000000

