%chk=C:\Users\emman\Escritorio\quimica-enlaces\molecula\203.chk
# wb97xd/3-21g

Title Card Required - Distancia 1.000A - Paso 0

0 1
 O      0.12491732    -0.08004175     0.00000000
 O     -2.00597617    -0.37041996     0.00000000
 O     -0.93334631     0.39890778     0.00000000
 O      0.27581151    -1.06859167     0.00000000
 O     -1.85508197    -1.35896988     0.00000000
 O     -0.78245211    -0.58964213     0.00000000

