%chk=C:\Users\emman\Escritorio\quimica-enlaces\molecula\203.chk
# wb97xd/3-21g

Title Card Required - Distancia 3.200A - Paso 11

0 1
 O      0.12491732    -0.08004175     0.00000000
 O     -2.00597617    -0.37041996     0.00000000
 O     -0.93334631     0.39890778     0.00000000
 O      0.60777874    -3.24340149     0.00000000
 O     -1.52311474    -3.53377970     0.00000000
 O     -0.45048488    -2.76445195     0.00000000

