%chk=C:\Users\emman\Escritorio\quimica-enlaces\molecula\203.chk
# wb97xd/3-21g

Title Card Required - Distancia 5.000A - Paso 20

0 1
 O      0.12491732    -0.08004175     0.00000000
 O     -2.00597617    -0.37041996     0.00000000
 O     -0.93334631     0.39890778     0.00000000
 O      0.87938830    -5.02279135     0.00000000
 O     -1.25150518    -5.31316956     0.00000000
 O     -0.17887532    -4.54384181     0.00000000

