%chk=C:\Users\emman\Escritorio\quimica-enlaces\molecula\203.chk
# wb97xd/3-21g

Title Card Required - Distancia 1.800A - Paso 4

0 1
 O      0.12491732    -0.08004175     0.00000000
 O     -2.00597617    -0.37041996     0.00000000
 O     -0.93334631     0.39890778     0.00000000
 O      0.39652687    -1.85943161     0.00000000
 O     -1.73436661    -2.14980982     0.00000000
 O     -0.66173675    -1.38048207     0.00000000

