%chk=C:\Users\emman\Escritorio\quimica-enlaces\molecula\203.chk
# wb97xd/3-21g

Title Card Required - Distancia 5.800A - Paso 24

0 1
 O      0.12491732    -0.08004175     0.00000000
 O     -2.00597617    -0.37041996     0.00000000
 O     -0.93334631     0.39890778     0.00000000
 O      1.00010366    -5.81363128     0.00000000
 O     -1.13078982    -6.10400949     0.00000000
 O     -0.05815996    -5.33468174     0.00000000

