%chk=C:\Users\emman\Escritorio\quimica-enlaces\molecula\203.chk
# wb97xd/3-21g

Title Card Required - Distancia 3.600A - Paso 13

0 1
 O      0.12491732    -0.08004175     0.00000000
 O     -2.00597617    -0.37041996     0.00000000
 O     -0.93334631     0.39890778     0.00000000
 O      0.66813642    -3.63882146     0.00000000
 O     -1.46275706    -3.92919967     0.00000000
 O     -0.39012720    -3.15987192     0.00000000

