%chk=C:\Users\emman\Escritorio\quimica-enlaces\molecula\203.chk
# wb97xd/3-21g

Title Card Required - Distancia 4.400A - Paso 17

0 1
 O      0.12491732    -0.08004175     0.00000000
 O     -2.00597617    -0.37041996     0.00000000
 O     -0.93334631     0.39890778     0.00000000
 O      0.78885178    -4.42966139     0.00000000
 O     -1.34204170    -4.72003960     0.00000000
 O     -0.26941184    -3.95071185     0.00000000

