%chk=C:\Users\emman\Escritorio\quimica-enlaces\molecula\203.chk
# wb97xd/3-21g

Title Card Required - Distancia 2.200A - Paso 6

0 1
 O      0.12491732    -0.08004175     0.00000000
 O     -2.00597617    -0.37041996     0.00000000
 O     -0.93334631     0.39890778     0.00000000
 O      0.45688455    -2.25485157     0.00000000
 O     -1.67400893    -2.54522978     0.00000000
 O     -0.60137907    -1.77590203     0.00000000

