%chk=C:\Users\emman\Escritorio\quimica-enlaces\molecula\203.chk
# wb97xd/3-21g

Title Card Required - Distancia 1.200A - Paso 1

0 1
 O      0.12491732    -0.08004175     0.00000000
 O     -2.00597617    -0.37041996     0.00000000
 O     -0.93334631     0.39890778     0.00000000
 O      0.30599035    -1.26630166     0.00000000
 O     -1.82490313    -1.55667987     0.00000000
 O     -0.75227327    -0.78735212     0.00000000

