%chk=C:\Users\emman\Escritorio\quimica-enlaces\molecula\203.chk
# wb97xd/3-21g

Title Card Required - Distancia 5.600A - Paso 23

0 1
 O      0.12491732    -0.08004175     0.00000000
 O     -2.00597617    -0.37041996     0.00000000
 O     -0.93334631     0.39890778     0.00000000
 O      0.96992482    -5.61592130     0.00000000
 O     -1.16096866    -5.90629951     0.00000000
 O     -0.08833880    -5.13697176     0.00000000

