%chk=C:\Users\emman\Escritorio\quimica-enlaces\molecula\203.chk
# wb97xd/3-21g

Title Card Required - Distancia 5.200A - Paso 21

0 1
 O      0.12491732    -0.08004175     0.00000000
 O     -2.00597617    -0.37041996     0.00000000
 O     -0.93334631     0.39890778     0.00000000
 O      0.90956714    -5.22050133     0.00000000
 O     -1.22132634    -5.51087954     0.00000000
 O     -0.14869648    -4.74155179     0.00000000

