%chk=C:\Users\emman\Escritorio\quimica-enlaces\molecula\203.chk
# wb97xd/3-21g

Title Card Required - Distancia 4.000A - Paso 15

0 1
 O      0.12491732    -0.08004175     0.00000000
 O     -2.00597617    -0.37041996     0.00000000
 O     -0.93334631     0.39890778     0.00000000
 O      0.72849410    -4.03424143     0.00000000
 O     -1.40239938    -4.32461964     0.00000000
 O     -0.32976952    -3.55529189     0.00000000

