%chk=C:\Users\emman\Escritorio\quimica-enlaces\molecula\203.chk
# wb97xd/3-21g

Title Card Required - Distancia 4.800A - Paso 19

0 1
 O      0.12491732    -0.08004175     0.00000000
 O     -2.00597617    -0.37041996     0.00000000
 O     -0.93334631     0.39890778     0.00000000
 O      0.84920946    -4.82508136     0.00000000
 O     -1.28168402    -5.11545957     0.00000000
 O     -0.20905416    -4.34613182     0.00000000

