%chk=C:\Users\emman\Escritorio\quimica-enlaces\molecula\203.chk
# wb97xd/3-21g

Title Card Required - Distancia 4.600A - Paso 18

0 1
 O      0.12491732    -0.08004175     0.00000000
 O     -2.00597617    -0.37041996     0.00000000
 O     -0.93334631     0.39890778     0.00000000
 O      0.81903062    -4.62737138     0.00000000
 O     -1.31186286    -4.91774959     0.00000000
 O     -0.23923300    -4.14842184     0.00000000

