%chk=C:\Users\emman\Escritorio\quimica-enlaces\molecula\2H20.chk
# b3lyp/3-21g

Title Card Required - Distancia +3.40A - Paso 17

0 1
 O     -1.85391570     0.51407231     0.00000000
 H     -0.89391570     0.51407231     0.00000000
 H     -2.17437029     1.41900815     0.00000000
 O      0.98823016     3.87297197     0.00000000
 H      1.94823016     3.87297197     0.00000000
 H      0.66777557     4.77790780     0.00000000

