%chk=C:\Users\emman\Escritorio\quimica-enlaces\molecula\2H20.chk
# b3lyp/3-21g

Title Card Required - Distancia +2.60A - Paso 13

0 1
 O     -1.85391570     0.51407231     0.00000000
 H     -0.89391570     0.51407231     0.00000000
 H     -2.17437029     1.41900815     0.00000000
 O      0.47147636     3.26226295     0.00000000
 H      1.43147636     3.26226295     0.00000000
 H      0.15102177     4.16719878     0.00000000

