%chk=C:\Users\emman\Escritorio\quimica-enlaces\molecula\2H20.chk
# b3lyp/3-21g

Title Card Required - Distancia +0.80A - Paso 4

0 1
 O     -1.85391570     0.51407231     0.00000000
 H     -0.89391570     0.51407231     0.00000000
 H     -2.17437029     1.41900815     0.00000000
 O     -0.69121967     1.88816763     0.00000000
 H      0.26878033     1.88816763     0.00000000
 H     -1.01167426     2.79310346     0.00000000

