%chk=C:\Users\emman\Escritorio\quimica-enlaces\molecula\2H20.chk
# b3lyp/3-21g

Title Card Required - Distancia +0.20A - Paso 1

0 1
 O     -1.85391570     0.51407231     0.00000000
 H     -0.89391570     0.51407231     0.00000000
 H     -2.17437029     1.41900815     0.00000000
 O     -1.07878501     1.43013586     0.00000000
 H     -0.11878501     1.43013586     0.00000000
 H     -1.39923960     2.33507169     0.00000000

