%chk=C:\Users\emman\Escritorio\quimica-enlaces\molecula\2H20.chk
# b3lyp/3-21g

Title Card Required - Distancia +1.00A - Paso 5

0 1
 O     -1.85391570     0.51407231     0.00000000
 H     -0.89391570     0.51407231     0.00000000
 H     -2.17437029     1.41900815     0.00000000
 O     -0.56203122     2.04084489     0.00000000
 H      0.39796878     2.04084489     0.00000000
 H     -0.88248581     2.94578072     0.00000000

