%chk=C:\Users\emman\Escritorio\quimica-enlaces\molecula\2H20.chk
# b3lyp/3-21g

Title Card Required - Distancia +0.40A - Paso 2

0 1
 O     -1.85391570     0.51407231     0.00000000
 H     -0.89391570     0.51407231     0.00000000
 H     -2.17437029     1.41900815     0.00000000
 O     -0.94959656     1.58281311     0.00000000
 H      0.01040344     1.58281311     0.00000000
 H     -1.27005115     2.48774894     0.00000000

