%chk=C:\Users\emman\Escritorio\quimica-enlaces\molecula\2H20.chk
# b3lyp/3-21g

Title Card Required - Distancia +2.00A - Paso 10

0 1
 O     -1.85391570     0.51407231     0.00000000
 H     -0.89391570     0.51407231     0.00000000
 H     -2.17437029     1.41900815     0.00000000
 O      0.08391102     2.80423117     0.00000000
 H      1.04391102     2.80423117     0.00000000
 H     -0.23654357     3.70916700     0.00000000

