%chk=C:\Users\emman\Escritorio\quimica-enlaces\molecula\2H20.chk
# b3lyp/3-21g

Title Card Required - Distancia +0.00A - Paso 0

0 1
 O     -1.85391570     0.51407231     0.00000000
 H     -0.89391570     0.51407231     0.00000000
 H     -2.17437029     1.41900815     0.00000000
 O     -1.20797346     1.27745860     0.00000000
 H     -0.24797346     1.27745860     0.00000000
 H     -1.52842805     2.18239443     0.00000000

