%chk=C:\Users\emman\Escritorio\quimica-enlaces\molecula\2H20.chk
# b3lyp/3-21g

Title Card Required - Distancia +2.80A - Paso 14

0 1
 O     -1.85391570     0.51407231     0.00000000
 H     -0.89391570     0.51407231     0.00000000
 H     -2.17437029     1.41900815     0.00000000
 O      0.60066481     3.41494020     0.00000000
 H      1.56066481     3.41494020     0.00000000
 H      0.28021022     4.31987603     0.00000000

