%chk=C:\Users\emman\Escritorio\quimica-enlaces\molecula\2H20.chk
# b3lyp/3-21g

Title Card Required - Distancia +3.20A - Paso 16

0 1
 O     -1.85391570     0.51407231     0.00000000
 H     -0.89391570     0.51407231     0.00000000
 H     -2.17437029     1.41900815     0.00000000
 O      0.85904171     3.72029472     0.00000000
 H      1.81904171     3.72029472     0.00000000
 H      0.53858712     4.62523055     0.00000000

