%chk=C:\Users\emman\Escritorio\quimica-enlaces\molecula\2H20.chk
# b3lyp/3-21g

Title Card Required - Distancia +1.40A - Paso 7

0 1
 O     -1.85391570     0.51407231     0.00000000
 H     -0.89391570     0.51407231     0.00000000
 H     -2.17437029     1.41900815     0.00000000
 O     -0.30365432     2.34619940     0.00000000
 H      0.65634568     2.34619940     0.00000000
 H     -0.62410891     3.25113523     0.00000000

