%chk=C:\Users\emman\Escritorio\quimica-enlaces\molecula\2H20.chk
# b3lyp/3-21g

Title Card Required - Distancia +2.20A - Paso 11

0 1
 O     -1.85391570     0.51407231     0.00000000
 H     -0.89391570     0.51407231     0.00000000
 H     -2.17437029     1.41900815     0.00000000
 O      0.21309947     2.95690843     0.00000000
 H      1.17309947     2.95690843     0.00000000
 H     -0.10735512     3.86184426     0.00000000

