%chk=C:\Users\emman\Escritorio\quimica-enlaces\molecula\2H20.chk
# b3lyp/3-21g

Title Card Required - Distancia +1.80A - Paso 9

0 1
 O     -1.85391570     0.51407231     0.00000000
 H     -0.89391570     0.51407231     0.00000000
 H     -2.17437029     1.41900815     0.00000000
 O     -0.04527743     2.65155392     0.00000000
 H      0.91472257     2.65155392     0.00000000
 H     -0.36573202     3.55648975     0.00000000

