%chk=C:\Users\emman\Escritorio\quimica-enlaces\molecula\2H20.chk
# b3lyp/3-21g

Title Card Required - Distancia +2.40A - Paso 12

0 1
 O     -1.85391570     0.51407231     0.00000000
 H     -0.89391570     0.51407231     0.00000000
 H     -2.17437029     1.41900815     0.00000000
 O      0.34228792     3.10958569     0.00000000
 H      1.30228792     3.10958569     0.00000000
 H      0.02183333     4.01452152     0.00000000

