%chk=C:\Users\emman\Escritorio\quimica-enlaces\molecula\2H20.chk
# b3lyp/3-21g

Title Card Required - Distancia +1.60A - Paso 8

0 1
 O     -1.85391570     0.51407231     0.00000000
 H     -0.89391570     0.51407231     0.00000000
 H     -2.17437029     1.41900815     0.00000000
 O     -0.17446588     2.49887666     0.00000000
 H      0.78553412     2.49887666     0.00000000
 H     -0.49492047     3.40381249     0.00000000

