%chk=C:\Users\emman\Escritorio\quimica-enlaces\molecula\2H20.chk
# b3lyp/3-21g

Title Card Required - Distancia +3.80A - Paso 19

0 1
 O     -1.85391570     0.51407231     0.00000000
 H     -0.89391570     0.51407231     0.00000000
 H     -2.17437029     1.41900815     0.00000000
 O      1.24660705     4.17832649     0.00000000
 H      2.20660705     4.17832649     0.00000000
 H      0.92615246     5.08326232     0.00000000

