%chk=C:\Users\emman\Escritorio\quimica-enlaces\molecula\2H20.chk
# b3lyp/3-21g

Title Card Required - Distancia +1.20A - Paso 6

0 1
 O     -1.85391570     0.51407231     0.00000000
 H     -0.89391570     0.51407231     0.00000000
 H     -2.17437029     1.41900815     0.00000000
 O     -0.43284277     2.19352214     0.00000000
 H      0.52715723     2.19352214     0.00000000
 H     -0.75329736     3.09845797     0.00000000

