%chk=C:\Users\emman\Escritorio\quimica-enlaces\molecula\2H20.chk
# b3lyp/3-21g

Title Card Required - Distancia +4.00A - Paso 20

0 1
 O     -1.85391570     0.51407231     0.00000000
 H     -0.89391570     0.51407231     0.00000000
 H     -2.17437029     1.41900815     0.00000000
 O      1.37579550     4.33100375     0.00000000
 H      2.33579550     4.33100375     0.00000000
 H      1.05534091     5.23593958     0.00000000

