%chk=C:\Users\emman\Escritorio\quimica-enlaces\molecula\2H20.chk
# b3lyp/3-21g

Title Card Required - Distancia +3.00A - Paso 15

0 1
 O     -1.85391570     0.51407231     0.00000000
 H     -0.89391570     0.51407231     0.00000000
 H     -2.17437029     1.41900815     0.00000000
 O      0.72985326     3.56761746     0.00000000
 H      1.68985326     3.56761746     0.00000000
 H      0.40939867     4.47255329     0.00000000

