%chk=C:\Users\emman\Escritorio\quimica-enlaces\molecula\2H20.chk
# b3lyp/3-21g

Title Card Required - Distancia +3.60A - Paso 18

0 1
 O     -1.85391570     0.51407231     0.00000000
 H     -0.89391570     0.51407231     0.00000000
 H     -2.17437029     1.41900815     0.00000000
 O      1.11741860     4.02564923     0.00000000
 H      2.07741860     4.02564923     0.00000000
 H      0.79696401     4.93058506     0.00000000

