%chk=C:\Users\emman\Escritorio\quimica-enlaces\molecula\scan_2H20_\H20.chk
# b3lyp/3-21g

Title Card Required

0 1
 O                  0.45602605   -0.50488599    0.00000000
 H                  1.41602605   -0.50488599    0.00000000
 H                  0.13557146    0.40004985    0.00000000

